50
50
123 100
107 164
135 126
197 125
192 131
184 117
100 103
148 162
179 127
144 109
196 163
178 165
103 155
106 187
197 129
101 107
156 102
164 151
138 171
102 137
120 189
154 185
162 195
193 136
151 122
188 123
140 137
135 173
121 137
158 107
142 166
103 181
125 165
184 173
174 116
139 142
150 114
148 146
182 108
154 187
109 150
171 135
112 100
187 108
131 109
164 162
134 148
142 178
121 101
138 183
